c File: instances/16_0.25_2.col
c
c Description: Random graph of size 16 vertices and P(0.25) of edges between any two vertices.
p col 16 120
e 1 3
e 1 4
e 1 6
e 1 9
e 2 6
e 2 8
e 2 10
e 2 12
e 2 15
e 3 4
e 3 6
e 3 8
e 3 11
e 3 14
e 3 15
e 4 5
e 4 7
e 4 8
e 4 12
e 4 13
e 4 15
e 5 9
e 6 8
e 6 9
e 6 10
e 6 12
e 6 13
e 6 16
e 7 10
e 8 10
e 9 11
e 9 12
e 9 14
e 10 11
e 10 12
e 10 13
e 11 14
e 11 16
e 15 16